% demand
num_movements = 17;
loading_factor = [1850, 950, 1450, 1000, 950, 900, 950, 1500, 850, 1700, 1550, 1700, 950, 950, 1950, 1350, 1800];
pickup_time = [0, 0, 1, 1, 1, 1, 1, 1, 1, 1, 2, 6, 6, 6, 7, 7, 7];
delivery_time = [1, 7, 8, 8, 4, 3, 2, 4, 5, 7, 8, 7, 8, 8, 8, 8, 8];

% transporter definition
total_capacity = 11000;
num_decks = 4;
capacity = [3000, 3000, 1000, 4000];

% ways out of decks
num_ways_out = 2;
paths_out = array3d(decks, ways_out, decks, [
% ways out of deck d1
2, 4, 0, 0, 3, 4, 0, 0, 

% ways out of deck d2
4, 0, 0, 0, 0, 0, 0, 0,	

% ways out of deck d3
4, 0, 0, 0, 0, 0, 0, 0,	

% ways out of deck d4
0, 0, 0, 0,	0, 0, 0, 0,	

]);

